c selecting simple specialised assertions
c
c gNo impact on customer ⊕ gPotential impact is limited ⊕ gPotential impact is significant = 1
c
c   x1 = gNo impact on customer
c   x2 = gPotential impact is limited
c   x3 = gPotential impact is significant
c
c   1. 1 = x1 ⊕ x2 ⊕ x3 & ~(x1 & x2 & x3)
c   2. 1 = (~x1 + ~x2) & (~x1 + ~x3) & (x1 + x2 + x3) & (~x2 + ~x3)
c
c tCopy changes = ¬tNo copy changes
c
c   x4 = tCopy changes
c   x5 = tNo copy changes
c
c   3. x4 = !x5
c   4. 1 = x4 ⊕ x5
c   5. 1 = (~x4 + ~x5) & (x4 + x5)
c
c tDatabase migration = ¬tNo database migration
c
c  0 0 1
c  0 1 1
c  1 0 1
c  1 1 0
c
c   1 = !(x6 & x7)
c   1 = !x6 + !x7
c
c
c   x6 = tDatabase migration
c   x7 = tNo database migration
c
c   6. x6 = !x7
c   7. 1 = x6 ⊕ x7
c   8. 1 = (~x6 + ~x7) & (x6 + x7)
c
c tNo copy changes & tNo database migration = gNo impact on customer
c   x5 & x7 = x1
c
c  (x1 & x5 & x7) + (!x1 & !x5) + (!x1 & !x7) = 1
c  (!x1 + x5) & (!x1 + x7) & (x1 + !x5 + !x7) = 1
c
c tDatabase migration = gPotential impact is significant
c
c  x6 = x3
c  (x6 & x3) + (!x6 & !x3)
c  (!x6 + x3) & (x6 + !x3)
c
c tDatabase migration -> gPotential impact is significant = 1
c
c  x6 -> x3 = 1
c  !x6 + x3 = 1
c
c  tCopy changes & tNo database migration = gPotential impact is limited
c
c  x4 & x7 = x2
c
c
c
c
c
c  15. 1 = (~x1 + ~x2) & (~x1 + ~x3) & (x1 + x2 + x3) & (~x2 + ~x3) & (~x4 + ~x5) & (x4 + x5) & (~x6 + ~x7) & (x6 + x7) & (!x1 + x5) & (!x1 + x7) & (x1 + !x5 + !x7) & (!x6 + x3) & (x6 + !x3)
c
p cnf 11 7
-1 -2 0
-1 -3 0
1 2 3 0
-2 -3 0
-4 -5 0
4 5 0
-6 -7 0
6 7 0
-1 5 0
-1 7 0
1 -5 -7 0
3 -6 0
